10J3M/DAT/10J3MUTA-20.dat
10 3
26.0061 676.3172
7.8436 61.5221
36.7936 1353.769
34.3037 1176.7438
15.7307 247.4549
49.596 2459.7632
26.438 698.9678
32.8014 1075.9318
32.0424 1026.7154
34.4863 1189.3049
2491.6226