10J3M/SOL/10J3MUTA-20.sol
solution status: optimal solution found
objective value:                     59.8034547218952
x#1#1                                               1 	(obj:0)
x#2#2                              0.0458884439260598 	(obj:0)
x#2#3                                0.95411155607394 	(obj:0)
x#3#1                                 0.8390384750778 	(obj:0)
x#3#2                                 0.1609615249222 	(obj:0)
x#4#3                                               1 	(obj:0)
x#5#2                                               1 	(obj:0)
x#6#2                                               1 	(obj:0)
x#7#1                                               1 	(obj:0)
x#8#1                               0.279940239695234 	(obj:0)
x#9#1                                               1 	(obj:0)
x#10#1                              0.365434185145062 	(obj:0)
x#10#2                              0.210797968621105 	(obj:0)
x#10#3                              0.423767846233829 	(obj:0)
z                                    59.8034547218952 	(obj:1)
